p cnf 150 180
-90 -26 83 0
80 136 -96 0
149 142 -112 0
-109 -56 1 0
123 -115 -121 0
-134 145 -66 0
-74 24 9 0
-13 -110 -80 0
18 -34 -118 0
140 -104 -96 0
-36 -130 75 0
-84 42 111 0
54 -97 76 0
127 76 -118 0
-128 32 -68 0
-106 36 19 0
-23 53 -78 0
17 -101 133 0
98 -135 17 0
-22 26 3 0
20 -4 48 0
88 20 16 0
94 57 148 0
82 -19 -138 0
-78 -132 125 0
129 71 89 0
-93 -43 20 0
-112 7 -124 0
88 78 27 0
29 96 -129 0
-129 111 -138 0
72 -74 96 0
146 -121 -76 0
108 -29 -53 0
42 34 17 0
131 -109 89 0
29 27 -123 0
150 -69 -54 0
-40 -26 -92 0
-134 -24 -144 0
-123 3 -143 0
-87 99 -16 0
78 66 -23 0
-138 120 -122 0
117 -150 -114 0
-78 -135 -69 0
-96 115 -35 0
-101 -14 103 0
144 -104 10 0
-17 109 -53 0
-33 119 -122 0
-25 79 -117 0
103 -101 61 0
132 68 -13 0
45 -136 101 0
-127 109 -16 0
66 -144 47 0
-74 -68 -139 0
-90 -41 -81 0
-89 67 135 0
-133 -2 -14 0
146 -4 -105 0
-115 -124 -30 0
-65 121 -134 0
33 -112 72 0
132 81 -77 0
107 -115 92 0
-117 -42 -115 0
-108 67 135 0
-49 16 45 0
-51 -54 -78 0
107 -70 -71 0
143 -124 -99 0
-64 73 -55 0
105 94 -99 0
18 -78 -34 0
114 55 -41 0
-5 128 103 0
92 4 -100 0
7 69 52 0
148 -119 -106 0
78 -40 -101 0
-124 106 119 0
41 -29 -133 0
-116 -121 81 0
-12 -31 19 0
-100 11 -43 0
148 -123 -68 0
94 -64 18 0
-66 -26 -133 0
30 -24 4 0
138 -60 28 0
-43 1 83 0
-8 -98 32 0
123 148 -63 0
67 -43 -85 0
-57 -138 -43 0
-87 -45 -120 0
34 5 -105 0
-51 106 -97 0
-78 -147 62 0
-135 85 -137 0
-134 -12 -81 0
-135 -137 -142 0
-130 103 -32 0
-75 14 84 0
-18 29 38 0
-10 36 -127 0
81 -46 -114 0
-139 -93 -46 0
-23 62 81 0
68 -48 -99 0
96 -46 17 0
-83 -122 -110 0
55 21 65 0
-95 -124 92 0
-38 -77 126 0
10 55 -93 0
-7 15 -39 0
72 -27 -29 0
27 -85 94 0
121 -6 23 0
139 -23 106 0
-50 -145 -99 0
-138 -46 106 0
-7 -31 -98 0
91 -134 -58 0
47 -50 48 0
-57 -106 -83 0
63 41 73 0
-107 115 106 0
-81 145 137 0
66 14 -76 0
17 -75 84 0
-4 -63 9 0
-63 40 -54 0
-118 -70 -115 0
-59 -14 -26 0
-81 67 40 0
111 29 -61 0
-107 51 102 0
-144 49 -33 0
24 -40 110 0
-96 -24 -94 0
-128 -98 28 0
29 -1 -69 0
-53 62 -58 0
145 123 -26 0
57 15 -88 0
-1 -110 68 0
x 1 3 -4 10 -12 -13 -15 16 -17 -19 20 -22 -24 -28 30 32 -33 36 39 -41 42 43 44 45 48 50 52 -54 56 -57 59 -61 63 -64 66 73 -74 75 76 -77 -79 81 -82 83 85 86 -88 -89 -90 -95 97 98 100 -101 102 103 104 -107 108 109 112 117 -118 119 -122 123 -128 129 -131 133 -134 -139 140 141 -142 -143 -146 149 150 0
x 1 2 4 5 6 -7 -8 -10 -13 15 -16 17 19 -21 -25 -29 30 -31 -32 -34 -35 -38 39 40 -42 -43 -44 45 47 -49 50 53 -58 -60 -63 64 65 -66 -68 69 70 72 -75 76 -78 80 86 87 88 90 -92 97 99 100 104 -107 109 111 112 -113 -114 118 120 -123 -125 -127 128 130 -137 -139 -140 142 -144 -145 -147 -149 150 0
x 2 4 -5 6 7 8 16 17 -18 22 -23 -24 -25 26 -31 33 -34 36 38 -40 -41 -42 43 -44 -46 47 -49 50 -51 54 -56 -57 59 -60 66 67 -68 -71 72 74 75 78 80 81 86 -87 90 -91 -93 96 98 -103 105 106 107 108 109 -110 111 -114 -117 119 124 125 -127 129 -131 132 -133 134 136 138 -140 143 144 -145 146 147 -148 -149 0
x 3 5 -6 -8 -11 12 14 17 -20 22 -23 27 -28 29 30 31 -34 36 39 -42 -45 47 49 51 53 -54 55 56 57 -59 60 -63 -65 -66 -67 69 71 74 76 77 78 79 83 84 -85 86 -89 90 -93 -96 97 -99 -102 -104 105 106 -108 109 -110 -113 -114 115 117 118 122 -128 129 -131 135 136 137 139 -140 -143 147 -149 -150 0
x 1 2 -3 -8 11 12 -14 -16 17 20 -23 -25 -26 -28 -29 -30 -31 34 -35 -40 -41 -42 44 45 46 48 -49 51 -55 61 62 -63 64 68 69 -70 71 72 -75 77 79 80 82 84 85 86 -91 -92 -94 -95 96 -97 -98 101 102 104 -105 106 -107 108 110 -112 114 116 117 118 -124 126 -127 -128 130 -132 133 134 135 139 142 144 145 148 150 0
x 1 -3 4 6 -7 9 -14 16 -18 -19 22 -24 -25 26 28 29 -31 33 35 -36 41 -44 -45 -48 -49 51 -52 54 55 -61 63 66 67 -68 -69 -72 73 76 77 79 -83 -85 87 -89 -90 -94 95 96 -98 -99 -100 -102 -105 -110 -111 -112 -117 -118 -120 122 124 125 -128 -129 130 -131 -133 134 136 140 -145 148 -149 0
x -1 -3 -5 -7 8 -12 -13 -14 -16 -18 -19 -20 -21 -23 -25 -26 27 -32 34 -35 -36 -37 39 40 42 -44 49 -51 -53 56 -58 -61 62 -63 -64 66 68 -69 -71 -74 -75 77 78 -79 -82 83 -87 -89 91 -92 -94 -95 97 -100 101 102 -104 -107 108 110 -112 117 118 -119 123 -125 129 131 -134 -137 141 142 -143 -148 -149 0
x -1 -3 4 5 -9 -11 14 -15 -16 -20 -21 -22 23 -24 25 -26 31 -32 -34 35 -36 -38 39 40 -41 49 53 -54 -56 -57 58 -61 -62 63 64 66 -67 68 69 71 -72 -73 -74 76 -78 -79 81 82 -83 -85 87 88 -90 -91 93 95 97 98 100 -101 103 105 -108 -109 110 -112 114 115 117 -118 -119 120 -126 -127 128 129 131 132 133 -134 135 137 -138 141 -142 -143 -144 147 -149 0
x -1 -4 -7 10 -11 -13 14 -15 16 17 18 -19 24 26 -27 -28 -30 -31 -33 -34 -37 -38 -39 41 43 49 51 -52 55 58 59 60 -61 -63 -66 67 -68 -70 -71 75 -77 -78 80 -82 86 87 -88 -89 90 93 95 -98 -106 -107 109 110 -113 -118 121 -126 127 135 137 -138 -140 -141 144 146 -147 149 -150 0
x -3 8 -10 -11 -14 -15 -18 -20 -22 -23 -24 -25 26 27 -29 -31 32 33 -34 -38 -40 -41 47 51 55 -56 57 -58 62 -63 -67 69 71 -73 75 -77 80 -81 -84 -88 -90 91 93 -95 -100 103 -104 106 108 111 -113 -114 -116 117 -120 -121 122 -125 -126 127 -131 132 133 -136 137 143 145 -146 -148 0
x -3 4 8 -12 13 19 23 25 -26 -28 -29 -33 35 -36 38 -39 41 -42 -43 -48 -50 51 53 54 55 57 65 66 -67 70 71 73 -74 -75 77 81 84 -85 86 87 -94 98 -101 102 -103 -104 -108 111 114 115 117 118 119 -121 122 -123 -127 -130 132 -133 134 -137 -141 -142 144 146 147 -148 -150 0
x -1 4 -5 -6 11 -18 -21 23 26 -27 28 -29 30 -31 35 -36 -40 -41 -42 -45 46 55 56 57 59 -61 67 -68 -69 -79 -81 82 92 98 99 -102 103 106 -107 -111 117 118 119 -122 -123 125 -126 -127 128 -129 130 -135 -138 -140 143 144 148 -149 0
x 1 2 3 -6 9 -10 11 12 13 14 -16 18 22 23 -25 27 31 32 -35 -36 -39 -40 -44 45 46 50 52 54 -57 58 -60 -61 -62 65 71 -72 -73 -74 -76 78 -82 84 85 -86 87 90 91 92 93 -98 99 -100 102 104 107 -108 -110 -112 115 116 123 -124 127 -129 131 133 134 135 -136 -139 -140 -141 145 -146 -147 -148 0
x -4 -5 6 -11 12 13 14 -15 -17 -19 -20 26 -28 30 -31 32 -36 39 44 46 47 48 50 -51 -55 -56 -57 -64 67 -76 77 -79 -82 85 87 -88 -89 -93 -94 97 101 103 104 -106 107 110 111 -112 113 -115 116 -117 -118 -120 123 124 -125 -131 132 133 -134 136 -138 -140 -142 143 148 -149 0
x -5 -8 -9 -11 -13 16 -17 20 -23 24 -25 -26 27 -28 30 32 33 34 36 -38 40 41 -43 44 -45 47 -50 -51 53 54 55 57 -61 62 -63 64 70 -71 -73 -74 -76 -77 -78 80 -82 83 -84 -85 92 -93 96 97 -98 -101 -107 108 -109 110 113 114 -115 116 -118 120 122 125 126 -128 -129 130 131 132 -134 135 -136 137 139 -143 150 0
x -1 5 7 -8 10 -11 14 -15 16 -18 -19 21 -23 24 -25 -26 -27 28 -29 -33 -34 -35 -36 -37 40 41 44 -45 46 -47 -48 50 54 -55 -58 -59 -60 -61 64 -66 68 69 -70 -73 74 -75 76 -79 80 83 85 87 -89 -90 -92 93 -94 -95 -97 100 -101 -103 -104 -105 -107 -110 -117 119 120 -121 -123 125 126 128 -129 131 -133 -135 -138 -139 140 141 -142 -144 147 -148 -149 150 0
x 3 -9 -11 -13 14 17 18 -22 -23 24 -26 30 -35 -36 -37 38 39 -44 45 -51 52 -53 -55 -56 58 59 65 -66 67 -68 -69 -77 79 -82 83 88 89 90 -91 93 -94 95 98 -99 100 101 -103 -105 -108 -110 113 -114 -116 117 -118 121 122 123 -124 126 -131 134 137 141 143 -144 -146 149 0
x -3 -4 -5 -6 -7 -9 -10 -12 13 -20 -21 23 -25 28 30 -31 -32 -34 -36 -37 -39 40 -43 -47 -48 52 53 57 -58 -61 -63 66 -67 -73 80 -81 -84 87 -88 -89 -90 -91 98 -99 100 103 104 105 108 109 -110 115 -116 118 120 -121 -124 126 129 -133 -134 -135 137 138 -140 142 144 146 -148 0
x 1 2 6 7 -9 11 -12 -13 16 22 23 26 28 -29 -30 31 -34 35 -39 40 43 44 45 -48 49 50 52 -53 -54 -59 61 68 -69 72 -73 76 -78 80 -81 82 83 85 88 -90 -91 -92 93 94 96 -99 102 105 -108 -110 112 -114 115 116 117 118 -120 122 -124 -126 129 130 131 -134 -135 -136 137 139 140 141 -142 148 149 150 0
x -1 2 3 -4 -6 -11 -14 -15 -16 -18 20 21 -22 -25 29 32 34 36 37 -38 -41 -42 -44 -45 -47 48 -49 52 53 -54 -57 58 59 -61 62 -63 -66 74 75 76 77 81 -83 -84 -85 86 87 -89 -91 92 95 -96 97 -98 -100 -103 106 107 -108 115 -116 -118 120 123 126 127 -128 -129 -131 -133 134 -135 136 139 -140 142 -144 -146 149 0
x 2 4 -5 7 -9 10 13 -14 15 -17 -18 20 -22 -23 -24 25 -26 -27 -28 -30 -33 -34 36 37 -42 -44 47 48 -50 53 -57 -58 62 64 65 68 72 74 -75 -77 -78 79 80 81 -86 87 -90 -93 -95 96 -98 99 -102 106 -112 113 -115 -116 117 -118 -121 -122 124 125 -129 -131 -132 -135 -137 -138 -142 143 -144 145 -147 148 149 150 0
x -1 -3 -4 8 -9 10 -13 -15 17 20 22 -23 24 -25 -26 28 -30 33 34 -40 42 43 44 -46 -47 -48 -50 51 53 55 -56 -57 58 59 64 68 -70 71 -74 -75 -80 81 83 85 90 -91 -94 -96 97 100 101 103 -107 -108 109 -110 111 113 -115 118 -119 121 -122 -127 129 130 131 133 134 -135 140 -147 149 0
x 3 -7 8 9 11 12 -13 -15 16 -17 19 -21 23 24 25 26 -27 -30 -32 -36 -38 -41 -42 44 -51 53 -56 -57 59 60 61 64 -65 69 -70 -71 -73 76 -81 -82 84 87 88 -90 -91 -95 -98 99 -102 -103 -108 109 110 111 114 -116 -117 -119 -120 121 -124 -128 132 -133 -135 138 -139 141 -142 146 147 -148 149 0
x 2 -5 6 7 -8 -14 16 18 -20 -22 23 -24 -26 27 -28 29 -30 -32 34 35 36 37 39 -41 42 -43 -44 45 46 -48 -51 52 -53 -54 -55 56 57 58 59 60 61 -62 -63 -64 -65 -67 -70 -71 -72 75 76 77 -81 83 -84 -87 89 -92 -93 94 96 -97 99 103 104 105 106 108 -112 113 114 115 116 -119 -120 -122 124 127 -128 129 131 -132 133 -136 140 142 -143 -144 145 147 -149 0
x -2 3 4 6 -8 -13 15 -17 -19 -20 24 -27 28 31 -33 35 37 38 39 -43 44 47 -48 52 54 -59 -60 61 65 66 67 68 69 71 -74 75 78 82 85 -87 -88 -89 91 -94 95 96 101 102 -104 111 112 113 115 -121 125 130 -131 132 135 136 -137 -138 139 -142 146 -147 149 -150 0
x -2 5 -6 9 10 -13 15 -17 -20 -32 -33 -34 -37 -38 41 42 -43 -44 45 46 -47 48 -49 50 52 53 -54 55 -56 -58 -63 -67 69 -71 -73 -78 80 81 82 -83 -87 88 89 91 92 -93 -96 -103 -104 105 -106 107 108 -111 113 114 118 119 -120 121 -122 124 126 128 -129 133 137 -138 -139 -140 141 -144 -145 -146 148 149 -150 0
x 1 -4 5 7 -10 -12 15 -16 20 -22 27 -28 33 35 37 39 -41 -44 -45 46 50 -51 54 -57 -58 59 61 -67 68 -70 -71 75 -78 -80 -81 -82 84 86 -90 91 -93 94 96 100 -102 -103 104 108 -109 110 111 112 -114 -115 117 -120 -123 -127 -131 -133 -135 137 140 141 142 -146 149 0
x -2 3 -5 -7 10 -11 -12 -13 -14 -16 17 18 -19 20 -22 26 -28 -29 -32 35 -38 39 -43 -47 49 51 52 54 57 -60 -61 63 65 -66 71 72 -75 76 78 79 80 81 -83 -85 -86 89 93 -97 99 -101 -102 -109 -110 -112 -113 115 -116 118 -119 -121 122 123 125 -126 -132 137 138 -139 141 142 -146 148 -149 0
x 2 -3 -5 6 8 -9 -10 11 -12 -14 -15 -16 -17 -18 -20 -22 23 26 -27 28 29 -31 -33 34 -35 36 37 39 42 -48 50 51 52 -53 -57 60 -61 -63 -65 -67 -68 -69 -70 -73 74 79 -82 -83 -84 85 86 87 89 -90 93 -97 -99 101 -102 103 -104 105 108 112 -113 114 117 120 -121 122 -125 126 -130 -132 136 -139 -142 144 -145 147 150 0
x -1 5 6 -8 9 -11 -15 -16 -19 20 22 -25 -26 -30 -32 34 -35 -39 40 42 -46 -48 -50 -51 55 56 57 61 -62 -63 -66 -67 -72 73 -79 -80 82 84 -85 89 -93 -96 -100 -103 104 -107 108 -109 110 -111 113 116 118 120 126 127 128 -130 -131 132 133 134 135 137 139 -141 -142 144 145 148 149 -150 0
